(set-info :smt-lib-version 2.6)
(set-logic QF_S)
(set-info :source |
Generated by: Hung-En Wang, Tzung-Lin Tsai, Chun-Han Lin, Fang Yu, and Jie-Hong R. Jiang
Generated on: 2019-02-28
Generator: Stranger
Application: Security analysis of string manipulating web applications
Target solver: CVC4, Norn, Z3-str2
Publication:
Hung-En Wang, Tzung-Lin Tsai, Chun-Han Lin, Fang Yu, Jie-Hong R. Jiang:
String Analysis via Automata Manipulation with Logic Circuit Representation. CAV (1) 2016: 241-260.
|)
(set-info :license "https://creativecommons.org/licenses/by/4.0/")
(set-info :category "industrial")
(set-info :status unknown)

(declare-fun sigmaStar_0 () String)
(declare-fun sigmaStar_1 () String)
(declare-fun sigmaStar_2 () String)
(declare-fun sigmaStar_3 () String)
(declare-fun literal_6 () String)
(declare-fun x_5 () String)
(declare-fun epsilon () String)
(declare-fun x_7 () String)
(declare-fun literal_8 () String)
(declare-fun x_11 () String)
(declare-fun x_12 () String)
(declare-fun literal_14 () String)
(declare-fun x_15 () String)
(declare-fun sigmaStar_17 () String)
(declare-fun sigmaStar_18 () String)
(declare-fun literal_16 () String)
(declare-fun x_19 () String)
(declare-fun x_20 () String)
(declare-fun x_22 () String)
(declare-fun x_24 () String)
(declare-fun x_23 () String)
(declare-fun x_25 () String)
(assert (= literal_6 "\u{3c}\u{61}\u{20}\u{68}\u{72}\u{65}\u{66}\u{3d}\u{27}\u{2e}\u{2e}\u{2f}\u{70}\u{72}\u{6f}\u{66}\u{69}\u{6c}\u{65}\u{2e}\u{70}\u{68}\u{70}\u{3f}\u{6c}\u{6f}\u{6f}\u{6b}\u{75}\u{70}\u{3d}"))
(assert (= epsilon ""))
(assert (= x_5 epsilon))
(assert (= x_7 (str.++ literal_6 x_5)))
(assert (= literal_8 "\u{27}\u{3e}"))
(assert (= x_11 (str.++ x_7 literal_8)))
(assert (= x_12 (str.++ x_11 x_5)))
(assert (= literal_14 "\u{3c}\u{2f}\u{61}\u{3e}"))
(assert (= x_15 (str.++ x_12 literal_14)))
(assert (= literal_16 "\u{3c}\u{68}\u{72}\u{3e}\u{5c}\u{6e}"))
(assert (= x_19 (str.++ literal_16 sigmaStar_2)))
(assert (or (= x_20 sigmaStar_3) (= x_20 x_15)))
(assert (= x_22 (str.++ x_19 x_20)))
(assert (= x_24 (str.++ x_22 sigmaStar_1)))
(assert (or (= x_23 sigmaStar_18) (= x_23 sigmaStar_17) (= x_23 sigmaStar_0)))
(assert (= x_25 (str.++ x_24 x_23)))
(assert (str.in_re x_25 (re.++ (re.* re.allchar) (re.++ (str.to_re "\u{5c}\u{3c}\u{53}\u{43}\u{52}\u{49}\u{50}\u{54}") (re.* re.allchar)))))
(check-sat)
(exit)
